letting maxWeight=99
letting values=[30, 32, 33, 30, 22, 19, 35, 14, 26, 20, 37, 13, 16, 22, 9, 29, 10, 20, 43, 8, 33, 36, 31, 7, 6, 32, 9, 32, 3, 9, 14, 44, 33, 44, 12, 18, 34, 8, 15, 10, 33, 39, 12, 5, 39, 13, 30, 15, 40, 28, 4, 5, 29, 5, 18, 8, 30, 26, 40, 22, 19, 27]
letting weights=[11, 20, 10, 21, 7, 1, 19, 12, 2, 14, 4, 12, 12, 15, 4, 11, 5, 17, 1, 15, 4, 9, 20, 11, 8, 1, 5, 22, 13, 4, 21, 26, 17, 15, 15, 19, 20, 19, 14, 19, 9, 6, 26, 19, 16, 7, 7, 16, 13, 2, 9, 16, 25, 3, 19, 17, 8, 22, 9, 3, 15, 9]
